Read MPS format model from file dat/rmp/DER_24_16384_40.mps
Reading time = 0.81 seconds
: 16408 rows, 94912 columns, 2147195 nonzeros
Gurobi Optimizer version 9.0.0 build v9.0.0rc2 (linux64)
Optimize a model with 16408 rows, 94912 columns and 2147195 nonzeros
Model fingerprint: 0xb47b69f8
Coefficient statistics:
  Matrix range     [3e-05, 1e+01]
  Objective range  [2e-01, 1e+03]
  Bounds range     [1e+05, 1e+05]
  RHS range        [1e+00, 1e+00]
Ordering time: 0.01s

Barrier statistics:
 AA' NZ     : 3.725e+05
 Factor NZ  : 5.234e+05 (roughly 50 MBytes of memory)
 Factor Ops : 1.817e+07 (less than 1 second per iteration)
 Threads    : 1

                  Objective                Residual
Iter       Primal          Dual         Primal    Dual     Compl     Time
   0   8.90288592e+08 -5.26360581e+07  6.05e+07 7.37e-03  3.30e+05     0s
   1   2.01078070e+07 -1.05722665e+07  1.32e+06 3.64e-12  7.31e+03     1s
   2   7.64077325e+05 -6.54619522e+06  4.82e+04 1.82e-12  3.30e+02     1s
   3   2.44791514e+04 -3.50472924e+06  8.14e-10 3.64e-12  3.72e+01     1s
   4   2.37719657e+04  1.67227936e+04  3.14e-10 3.64e-12  7.43e-02     1s
   5   2.34788591e+04  2.22224344e+04  2.17e-10 3.64e-12  1.32e-02     1s
   6   2.33186754e+04  2.29092523e+04  3.10e-10 1.82e-12  4.31e-03     1s
   7   2.32011639e+04  2.30736172e+04  1.81e-10 1.82e-12  1.34e-03     1s
   8   2.31654187e+04  2.31120081e+04  3.32e-10 1.82e-12  5.63e-04     1s
   9   2.31508628e+04  2.31299588e+04  1.11e-09 1.82e-12  2.20e-04     1s
  10   2.31461967e+04  2.31393013e+04  9.60e-10 3.64e-12  7.26e-05     2s
  11   2.31445783e+04  2.31414462e+04  9.09e-10 3.64e-12  3.30e-05     2s
  12   2.31441519e+04  2.31420279e+04  7.13e-10 3.64e-12  2.24e-05     2s
  13   2.31440918e+04  2.31423957e+04  7.43e-10 3.64e-12  1.79e-05     2s
  14   2.31439663e+04  2.31426687e+04  7.71e-10 1.82e-12  1.37e-05     2s
  15   2.31438761e+04  2.31428830e+04  1.03e-09 1.82e-12  1.05e-05     2s
  16   2.31437968e+04  2.31430411e+04  9.20e-10 1.82e-12  7.96e-06     2s
  17   2.31437179e+04  2.31431377e+04  1.02e-09 1.82e-12  6.11e-06     2s
  18   2.31436416e+04  2.31432300e+04  1.95e-09 1.82e-12  4.34e-06     2s
  19   2.31436178e+04  2.31432675e+04  1.40e-09 1.82e-12  3.69e-06     2s
  20   2.31435903e+04  2.31432872e+04  1.32e-09 1.82e-12  3.19e-06     3s
  21   2.31435249e+04  2.31433090e+04  7.63e-09 9.09e-13  2.27e-06     3s
  22   2.31435172e+04  2.31433220e+04  7.82e-09 1.82e-12  2.06e-06     3s
  23   2.31434798e+04  2.31433392e+04  1.62e-08 1.82e-12  1.48e-06     3s
  24   2.31434449e+04  2.31433532e+04  9.40e-09 1.82e-12  9.66e-07     3s
  25   2.31434280e+04  2.31433660e+04  2.16e-08 2.51e-12  6.53e-07     3s
  26   2.31434148e+04  2.31433707e+04  4.99e-08 2.97e-12  4.65e-07     3s
  27   2.31434115e+04  2.31433768e+04  5.44e-08 3.38e-12  3.66e-07     4s
  28   2.31434098e+04  2.31433815e+04  5.15e-08 3.39e-12  2.98e-07     4s
  29   2.31434084e+04  2.31433831e+04  6.02e-08 3.37e-12  2.66e-07     4s
  30   2.31434032e+04  2.31433860e+04  1.32e-07 3.41e-12  1.82e-07     4s
  31   2.31434026e+04  2.31433872e+04  1.32e-07 3.32e-12  1.63e-07     4s
  32   2.31434006e+04  2.31433883e+04  1.98e-07 3.05e-12  1.30e-07     4s
  33   2.31433996e+04  2.31433890e+04  2.56e-07 2.86e-12  1.12e-07     4s
  34   2.31433988e+04  2.31433899e+04  2.51e-07 2.55e-12  9.32e-08     4s
  35   2.31433983e+04  2.31433905e+04  2.69e-07 2.39e-12  8.21e-08     4s
  36   2.31433976e+04  2.31433907e+04  3.10e-07 2.29e-12  7.32e-08     5s
  37   2.31433975e+04  2.31433912e+04  3.13e-07 1.97e-12  6.62e-08     5s
  38   2.31433973e+04  2.31433915e+04  3.43e-07 1.82e-12  6.07e-08     5s
  39   2.31433971e+04  2.31433917e+04  4.64e-07 1.82e-12  5.71e-08     5s
  40   2.31433967e+04  2.31433919e+04  7.27e-07 1.82e-12  5.07e-08     5s
  41   2.31433965e+04  2.31433923e+04  9.13e-07 1.82e-12  4.48e-08     5s
  42   2.31433962e+04  2.31433924e+04  8.11e-07 3.64e-12  4.04e-08     5s
  43   2.31433961e+04  2.31433925e+04  1.06e-06 1.82e-12  3.80e-08     5s
  44   2.31433960e+04  2.31433927e+04  1.07e-06 1.82e-12  3.42e-08     5s
  45   2.31433959e+04  2.31433928e+04  1.19e-06 3.64e-12  3.29e-08     5s
  46   2.31433958e+04  2.31433929e+04  1.58e-06 3.64e-12  3.15e-08     6s
  47   2.31433958e+04  2.31433929e+04  1.70e-06 3.64e-12  3.00e-08     6s
  48   2.31433957e+04  2.31433930e+04  1.74e-06 3.64e-12  2.87e-08     6s
  49   2.31433957e+04  2.31433930e+04  1.93e-06 3.64e-12  2.85e-08     6s
  50   2.31433955e+04  2.31433931e+04  2.61e-06 3.64e-12  2.48e-08     6s
  51   2.31433952e+04  2.31433933e+04  4.32e-06 9.09e-13  2.04e-08     6s
  52   2.31433952e+04  2.31433934e+04  4.19e-06 1.82e-12  1.93e-08     6s
  53   2.31433950e+04  2.31433934e+04  4.40e-06 1.82e-12  1.69e-08     6s
  54   2.31433950e+04  2.31433935e+04  4.81e-06 1.82e-12  1.54e-08     6s
  55   2.31433950e+04  2.31433936e+04  4.68e-06 1.82e-12  1.43e-08     6s
  56   2.31433949e+04  2.31433936e+04  5.61e-06 1.82e-12  1.28e-08     7s
  57   2.31433948e+04  2.31433938e+04  5.15e-06 1.82e-12  1.07e-08     7s
  58   2.31433947e+04  2.31433938e+04  4.84e-06 1.82e-12  8.90e-09     7s
  59   2.31433946e+04  2.31433939e+04  4.93e-06 1.82e-12  8.35e-09     7s
  60   2.31433946e+04  2.31433939e+04  4.74e-06 1.82e-12  7.74e-09     7s
  61   2.31433946e+04  2.31433940e+04  4.76e-06 1.82e-12  6.35e-09     7s
  62   2.31433946e+04  2.31433940e+04  4.17e-06 1.82e-12  5.72e-09     7s
  63   2.31433946e+04  2.31433940e+04  4.13e-06 3.64e-12  5.50e-09     7s
  64   2.31433945e+04  2.31433940e+04  4.03e-06 3.64e-12  5.18e-09     7s
  65   2.31433945e+04  2.31433941e+04  3.86e-06 1.82e-12  4.81e-09     8s
  66   2.31433944e+04  2.31433941e+04  3.95e-06 1.82e-12  3.15e-09     8s
  67   2.31433944e+04  2.31433941e+04  3.99e-06 1.82e-12  3.11e-09     8s
  68   2.31433944e+04  2.31433941e+04  3.97e-06 3.64e-12  2.93e-09     8s
  69   2.31433944e+04  2.31433941e+04  3.82e-06 3.64e-12  2.63e-09     8s
  70   2.31433944e+04  2.31433942e+04  3.75e-06 3.64e-12  2.46e-09     8s
  71   2.31433944e+04  2.31433942e+04  3.73e-06 1.82e-12  2.09e-09     8s
  72   2.31433944e+04  2.31433942e+04  3.30e-06 1.82e-12  1.85e-09     8s
  73   2.31433944e+04  2.31433942e+04  2.78e-06 3.64e-12  1.53e-09     9s
  74   2.31433943e+04  2.31433942e+04  2.35e-06 1.82e-12  1.27e-09     9s
  75   2.31433943e+04  2.31433942e+04  2.65e-06 1.82e-12  1.08e-09     9s
  76   2.31433943e+04  2.31433942e+04  4.77e-06 1.82e-12  9.17e-10     9s
  77   2.31433943e+04  2.31433942e+04  5.50e-06 1.82e-12  7.65e-10     9s
  78   2.31433943e+04  2.31433942e+04  4.97e-06 1.82e-12  7.07e-10     9s
  79   2.31433943e+04  2.31433942e+04  3.94e-06 1.82e-12  5.92e-10     9s
  80   2.31433943e+04  2.31433943e+04  5.73e-06 3.64e-12  5.30e-10     9s
  81   2.31433943e+04  2.31433943e+04  5.68e-06 3.64e-12  5.09e-10     9s
  82   2.31433943e+04  2.31433943e+04  4.82e-06 3.64e-12  3.72e-10    10s
  83   2.31433943e+04  2.31433943e+04  4.10e-06 3.64e-12  2.92e-10    10s
  84   2.31433943e+04  2.31433943e+04  3.20e-06 1.82e-12  1.84e-10    10s
  85   2.31433943e+04  2.31433943e+04  3.86e-06 1.82e-12  1.44e-10    10s
  86   2.31433943e+04  2.31433943e+04  3.96e-06 1.82e-12  8.51e-11    10s
  87   2.31433943e+04  2.31433943e+04  3.79e-06 1.82e-12  7.03e-11    10s
  88   2.31433943e+04  2.31433943e+04  6.90e-06 1.82e-12  5.31e-11    10s

Barrier solved model in 88 iterations and 10.17 seconds
Optimal objective 2.31436416e+04

Solve time: 10.178750815
Barrier iterations: 88
